$molecule
0 2
 C        -0.0946018658   -0.2862875634    0.6584936930
 C        -0.9326906499   -1.0061475377    1.7100632223
 C        -1.8049912755   -2.0592312116    1.0991852543
 C        -2.2677558347   -1.9023689136   -0.1532427075
 C        -1.9730784569   -0.6987579639   -0.8846737787
 C        -1.0618262935    0.2009376215   -0.3951239502
 C        -0.7389229415    1.4858086963   -1.0928020472
 H         0.4026426038    0.5606858408    1.1328384958
 H        -0.3165609268   -1.3998000679    2.5146230562
 H        -2.0650997134   -2.9247158149    1.6922010420
 H        -2.9196955240   -2.6409021586   -0.5990721757
 H        -2.5357727604   -0.4668139355   -1.7797943829
 H        -1.4514898466    1.6798452780   -1.8951024852
 O         0.6011408131    1.4552179675   -1.5928950157
 H        -0.7759790141    2.3107298853   -0.3838444184
 H         0.6397831435    0.8067889401   -2.3052263705
 O         0.8605859997   -1.1965739121    0.1325468757
 H         1.3882957713   -0.7189683985   -0.5180206375
 O        -1.6841331169    0.0743227755    2.3022829550
 O        -2.3935963961    0.6843215779    1.2697162947
$end

$rem
   BASIS = 6-311++G(2df,2p)
   GUI = 2
   JOB_TYPE = Frequency
   METHOD = wB97M-V
   SOLVENT_METHOD = SMD
   SCF_ALGORITHM = DIIS_GDM
   MAX_SCF_CYCLES = 400
   SCF_CONVERGENCE = 7
   THRESH = 12
$end 

@@@

$molecule
   read
$end

$rem
   JOBTYPE            rpath
   SCF_GUESS          read
   RPATH_MAX_CYCLES   30
   BASIS = 6-311++G(2df,2p)
   METHOD = wB97M-V
   SOLVENT_METHOD = SMD
   SCF_ALGORITHM = DIIS_GDM
   SCF_CONVERGENCE = 7
   THRESH = 12
$end
