$molecule
0 2
 C        -0.0568356492   -0.1801173299    0.7839561656
 C        -0.9336704908   -0.9288542812    1.7786576951
 C        -1.6592052976   -2.0810597334    1.1557228011
 C        -2.1053357374   -1.9179068089   -0.1807021767
 C        -1.8627520303   -0.7573216707   -0.8328734045
 C        -1.1860001578    0.3675646524   -0.0926538726
 C        -0.7506077486    1.5244436730   -0.9765877714
 H         0.4366724422    0.6503542526    1.2931750506
 H        -0.4356447956   -1.1836102491    2.7105129536
 H        -2.1272375654   -2.8030467055    1.8063544442
 H        -2.6582729886   -2.7158575081   -0.6579934610
 H        -2.1993408579   -0.5902815838   -1.8483187585
 H        -1.5928206027    1.9105668195   -1.5516844845
 O         0.3031476718    1.0981623067   -1.8359580131
 H        -0.3532527975    2.3189143809   -0.3487471884
 H        -0.0771529609    0.6097360498   -2.5745451856
 O         0.8697055113   -0.9990204351    0.1147548499
 H         1.1839282639   -0.4887909012   -0.6449141874
 O        -1.8920052880    0.0955374897    2.1149862072
 O        -2.0818973491    0.8980881610    0.9022111722
 O        -0.0324700635   -3.5309342104    1.0688758163
 O         0.3020323573   -3.8931640246    2.1882178170
$end

$rem
   BASIS = 6-311++G(2df,2p)
   GUI = 2
   JOB_TYPE = Frequency
   METHOD = wB97M-V
   SOLVENT_METHOD = SMD
   SCF_ALGORITHM = DIIS_GDM
   MAX_SCF_CYCLES = 400
   SCF_CONVERGENCE = 7
   THRESH = 12
$end 

@@@

$molecule
   read
$end

$rem
   JOBTYPE            rpath
   SCF_GUESS          read
   RPATH_MAX_CYCLES   30
   BASIS = 6-311++G(2df,2p)
   METHOD = wB97M-V
   SOLVENT_METHOD = SMD
   SCF_ALGORITHM = DIIS_GDM
   SCF_CONVERGENCE = 7
   THRESH = 12
$end
