$molecule
0 2
 C        -0.5326998320    0.0025343068    1.0230088974
 C        -0.9680983888   -1.1061386779    1.7802259216
 C        -1.8563513933   -2.0070854607    1.2371255274
 C        -2.3613365522   -1.7976328415   -0.0475638954
 C        -1.9848859224   -0.6759702028   -0.7817255910
 C        -1.0941960923    0.2408942012   -0.2544839734
 C        -0.6553643282    1.4407344335   -1.0471337767
 H         0.0088051725    0.7990370438    1.5126621360
 H        -0.5776116754   -1.2486966183    2.7783292608
 H        -2.1743327329   -2.8689676202    1.8069610373
 H        -3.0620138259   -2.5040952834   -0.4709461863
 H        -2.4004170344   -0.5102610904   -1.7676878666
 H        -1.3991398974    1.6865071802   -1.8048774205
 O         0.6226437233    1.2217845646   -1.6668666842
 H        -0.5244143939    2.3000984831   -0.3928305391
 H         0.5012626424    0.5717335151   -2.3685592532
 O         1.2768960978   -0.8001235469    0.3787212566
 H         1.3346013948   -0.1633912668   -0.3545236837
$end

$rem
   BASIS = 6-311++G(2df,2p)
   GUI = 2
   JOB_TYPE = Frequency
   METHOD = wB97M-V
   SOLVENT_METHOD = SMD
   SCF_ALGORITHM = DIIS_GDM
   MAX_SCF_CYCLES = 400
   SCF_CONVERGENCE = 7
   THRESH = 12
$end 

@@@

$molecule
   read
$end

$rem
   JOBTYPE            rpath
   SCF_GUESS          read
   RPATH_MAX_CYCLES   30
   BASIS = 6-311++G(2df,2p)
   METHOD = wB97M-V
   SOLVENT_METHOD = SMD
   SCF_ALGORITHM = DIIS_GDM
   SCF_CONVERGENCE = 7
   THRESH = 12
$end
