$comment

$end

$molecule
-1 2
  O    3.2190289   -0.8022062   -0.6998998
  C    2.4027385    0.1018893   -0.0023786
  C    2.8983862    0.3085723    1.4450013
  O    2.0345600    1.2028630    2.0868879
  C    4.3262403    0.8409196    1.4031164
  C    4.8142839    1.9988840    1.9021834
  C    4.0400288    3.0530946    2.6496045
  O    3.5496658    2.5088852    3.8461259
  O    4.8984839    4.1228935    2.9429522
  H    2.9288678   -1.7132714   -0.4331767
  H    1.3458849   -0.2511871   -0.0156583
  H    2.4113908    1.0733891   -0.5423589
  H    5.0481095    0.2015557    0.9008982
  H    5.8737061    2.1880090    1.7459837
  H    3.2140507    3.4021824    1.9849558
  H    2.8469978    3.1307698    4.1695180
  H    4.3206221    4.8779852    3.2280718
  O    2.9252038   -0.9175738    2.1446842
  O    1.6730815   -1.3040346    2.3156103
$end

$rem
   BASIS = 6-31G(d)
   GUI = 2
   JOB_TYPE = Optimization
   METHOD = B97-D3
   DFT_D  = D3_BJ
   SCF_ALGORITHM = DIIS_GDM
   MAX_SCF_CYCLES = 400
   GEOM_OPT_MAX_CYCLES = 300
   SCF_CONVERGENCE = 7
   THRESH = 12
   Solvent_method = SMD
$end
